s td 115 23 158
b 1 3 16 97
b 2 27 45 67 97
b 3 27 80 97 114 117
b 4 27 60 80 97 117 125
b 5 6 29 70 109 116 151
b 6 26 100 105 109 127 156
b 7 1 28 32 34 35 57 72 79 85 95 96 102 113 119 120 131 133 135 140 146 149 152
b 8 28 32 34 35 57 72 73 79 95 96 102 113 131 133 135 140 142 146 149 152
b 9 28 32 34 35 56 57 72 73 79 96 113 131 133 135 140 142 146 149 152
b 10 28 32 34 56 72 73 79 96 113 131 133 135 140 142 146 149 152 155
b 11 28 32 34 51 56 72 73 113 131 133 135 140 142 146 149 152 155
b 12 28 32 33 34 51 56 58 72 73 131 133 142 146 149 155
b 13 28 32 33 34 56 58 62 72 73 142 146 149 155
b 14 28 32 33 34 56 58 62 71 72 73 142 149
b 15 2 28 34 56 62 71 72 73 142 149
b 16 2 34 54 62 71 72 73 142 149
b 17 2 18 34 54 62 71 72 73
b 18 32 33 51 58 131 133 136 146 155
b 19 32 33 44 51 58 131 136
b 20 13 28 32 34 35 57 72 79 95 96 102 113 122 131 133 135 140 146 149 152
b 21 11 13 28 32 34 35 57 72 79 95 96 102 113 122 131 133 146 149 152
b 22 11 13 28 32 34 35 43 57 72 79 95 96 102 122 131 133 146 149
b 23 11 13 28 32 34 35 43 57 72 95 102 122 131 133 146 147 149
b 24 8 11 13 28 32 34 43 64 72 122 131 133 146 147 149
b 25 4 8 13 32 64 122 131 133 146
b 26 4 8 13 32 64 101 131
b 27 8 11 28 32 34 43 64 72 122 128 146 147 149
b 28 8 11 28 32 34 43 64 72 128 138 147 149
b 29 11 28 34 43 72 128 138 145 147 149
b 30 34 43 69 72 128 138 145 147 149
b 31 36 43 69 72 145 147 149
b 32 5 15 21 22 28 32 34 35 57 79 87 95 96 102 108 113 131 133 135 140 146 149 152
b 33 5 15 21 22 28 32 34 35 57 79 87 90 95 96 102 108 113 135 140 141 146 149 152
b 34 5 15 21 22 28 32 34 35 57 79 87 90 96 102 108 113 130 135 140 141 146 149 152
b 35 5 15 21 22 28 35 57 79 87 90 96 102 108 113 130 135 139 140 141 146 152
b 36 5 15 21 22 35 57 79 87 90 96 102 106 108 113 130 135 139 140 141 152
b 37 5 15 21 22 35 57 79 87 90 96 102 103 106 108 113 130 135 139 141 152
b 38 5 15 21 22 25 29 35 57 60 79 87 90 96 102 103 106 113 116 125 130 139 141 152
b 39 15 21 22 25 29 35 57 60 79 84 87 90 96 102 103 106 116 125 130 139 141 152
b 40 15 16 19 22 25 29 35 48 57 60 79 84 87 90 96 102 103 106 116 125 130 139 141
b 41 15 16 19 22 25 29 35 48 60 79 84 87 90 91 103 106 116 125 130 139 141
b 42 15 16 19 22 25 26 29 48 60 84 87 91 103 106 116 125 130 139 141 156
b 43 15 16 22 25 26 29 48 60 84 87 97 103 105 106 109 116 125 130 139 156
b 44 15 16 22 26 29 48 60 87 97 103 105 106 109 116 125 126 156
b 45 15 16 22 26 29 48 59 60 87 97 103 105 106 109 116 125 126
b 46 6 15 16 22 29 59 60 87 97 103 105 106 109 116 125 126
b 47 6 15 16 22 29 60 87 97 103 105 106 109 116 125 126 153
b 48 6 15 16 22 27 60 87 97 103 106 116 117 125 153
b 49 16 27 60 67 97 117 125
b 50 6 29 105 109 116 151 153
b 51 26 29 48 105 109 127 156
b 52 16 25 29 30 48 60 79 91 103 116 125
b 53 25 29 30 48 52 79 91 103 116
b 54 16 25 29 35 48 90 91 112 125
b 55 16 25 35 82 90 91 112 125
b 56 16 19 29 48 57 65 84 90 102 125 141
b 57 16 19 29 48 57 65 84 125 148
b 58 19 29 48 57 65 84 134 148
b 59 16 19 29 48 60 84 96 106 115 116 125
b 60 16 19 60 84 96 106 115 125 143
b 61 21 29 39 60 84 106 116 125 152
b 62 21 29 39 66 84 106 116 152
b 63 5 25 29 60 103 113 116 123 125
b 64 5 25 29 38 103 113 116 123
b 65 5 15 21 22 32 42 87 108 131 133 146
b 66 5 15 21 22 32 37 42 108 131
b 67 28 32 34 35 57 79 95 96 102 104 113 131 133 135 140 146 149 152
b 68 14 28 32 34 35 57 79 96 104 113 131 133 135 140 146 149 152
b 69 10 14 28 32 34 79 96 104 113 131 133 135 140 146 149 152
b 70 7 10 14 28 32 34 104 113 131 133 135 140 146 149 152
b 71 7 10 14 28 32 34 81 113 131 133 135 140 146 152
b 72 7 10 14 28 32 34 81 88 131 133 146
b 73 7 10 32 34 76 81 88 131 133 146
b 74 10 32 68 76 81 88 131 133 146
b 75 32 68 76 81 86 88 131
b 76 1 28 32 34 72 79 85 96 110 113 119 120 131 133 135 140 146 152
b 77 1 28 32 34 55 72 85 110 113 119 120 131 133 135 140 146 152
b 78 1 28 32 34 55 72 85 110 119 120 131 133 146 154
b 79 28 32 34 53 55 110 119 120 131 133 146 154
b 80 32 34 53 55 110 120 131 133 137 146 154
b 81 32 53 55 110 111 131 133 137 146
b 82 9 32 53 55 111 131 137
b 83 28 32 34 35 47 57 72 78 79 95 96 102 113 131 133 135 140 146 149 152
b 84 28 32 34 35 47 57 72 78 79 96 113 131 133 135 140 144 146 149 152
b 85 28 32 34 47 72 78 79 93 96 113 131 133 135 140 144 146 149 152
b 86 12 28 32 34 47 72 78 93 113 131 133 135 140 144 146 149 152
b 87 12 20 28 32 34 47 61 72 78 93 131 133 144 146 149
b 88 20 28 32 34 41 47 61 72 78 93 144 146 149
b 89 20 28 32 34 41 47 61 63 72 78 144 149
b 90 28 34 41 47 50 63 72 78 144 149
b 91 34 41 47 50 63 72 78 149 150
b 92 17 47 50 72 78 149 150
b 93 12 20 32 61 93 118 131 133 146
b 94 12 20 32 61 92 118 131
b 95 28 32 34 35 57 79 94 95 96 102 113 131 133 135 140 146 149 152
b 96 28 32 34 35 57 79 94 96 107 113 131 133 135 140 146 149 152
b 97 28 32 34 77 79 94 96 107 113 131 133 135 140 146 149 152
b 98 28 32 34 77 79 96 99 107 113 131 133 135 140 146 152
b 99 28 32 34 40 77 99 107 113 131 133 135 140 146 152
b 100 28 31 32 34 40 77 99 107 131 133 146
b 101 23 31 32 34 40 77 99 131 133 146
b 102 23 31 32 40 49 99 131 133 146
b 103 23 24 31 32 40 49 131
b 104 28 32 34 35 46 57 79 95 96 102 113 131 133 135 140 146 149 152
b 105 28 32 34 35 46 57 79 96 113 121 131 133 135 140 146 149 152
b 106 28 32 34 46 79 96 113 121 131 133 135 140 146 149 152 157
b 107 28 32 34 46 113 121 124 131 133 135 140 146 149 152 157
b 108 28 32 34 46 74 121 124 131 133 146 149 157
b 109 28 32 34 74 89 121 124 131 133 146 157
b 110 32 34 74 89 124 129 131 133 146 157
b 111 32 34 74 75 89 124 129 131 157
b 112 32 75 89 98 124 129 131
b 113 1 28 35 57 72 79 83 85 95 96 102 119 120 149
b 114 1 35 57 72 83 85 95 102 149 158
b 115 35 57 83 85 95 102 132 149 158
1 43
2 49
3 4
4 48
5 50
6 51
7 8
7 20
7 32
7 67
7 76
7 83
7 95
7 104
7 113
8 9
9 10
10 11
11 12
12 13
12 18
13 14
14 15
15 16
16 17
18 19
20 21
21 22
22 23
23 24
24 25
24 27
25 26
27 28
28 29
29 30
30 31
32 33
32 65
33 34
34 35
35 36
36 37
37 38
38 39
38 63
39 40
39 61
40 41
40 56
40 59
41 42
41 52
41 54
42 43
43 44
43 51
44 45
45 46
46 47
47 48
47 50
48 49
52 53
54 55
56 57
57 58
59 60
61 62
63 64
65 66
67 68
68 69
69 70
70 71
71 72
72 73
73 74
74 75
76 77
77 78
78 79
79 80
80 81
81 82
83 84
84 85
85 86
86 87
87 88
87 93
88 89
89 90
90 91
91 92
93 94
95 96
96 97
97 98
98 99
99 100
100 101
101 102
102 103
104 105
105 106
106 107
107 108
108 109
109 110
110 111
111 112
113 114
114 115
